c FILE /home/rafael/Documents/HappySet/MIHS/inputs/happygen/output/graph_scale_free_k3_p0.4_v50_20241127_082415.txt
c SOURCE This is a scale-free graph formed for the happy graph colouring problem.
c DESCRIPTION It was generated using the problem generator of Rhyd Lewis
c
c GRAPH STATS
c Seed                             = -494029848
c Number of Nodes                  = 50
c Number of colours k              = 3
c Number of pre-assignments        = 20
c Number of links per new node     = 5
c Density                          = 0.191837
c 
c The degrees of nodes 1 to 50, respectively, are as follows 
c [35, 27, 22, 20, 18, 16, 15, 15, 14, 13, 12, 12, 11, 10, 10, 10, 9, 9, 8, 8, 8, 8, 8, 7, 7, 7, 
c  7, 6, 6, 6, 6, 6, 6, 6, 6, 6, 5, 5, 5, 5, 5, 5, 5, 5, 5, 5, 5, 5, 5, 5] 
c  
p edge 50 235 3
e 1 2
e 1 3
e 1 4
e 1 5
e 1 6
e 1 7
e 1 10
e 1 11
e 1 12
e 1 13
e 1 14
e 1 15
e 1 16
e 1 17
e 1 18
e 1 20
e 1 22
e 1 23
e 1 26
e 1 28
e 1 29
e 1 30
e 1 32
e 1 33
e 1 34
e 1 35
e 1 37
e 1 38
e 1 40
e 1 43
e 1 44
e 1 45
e 1 46
e 1 48
e 1 50
e 2 3
e 2 4
e 2 5
e 2 6
e 2 7
e 2 8
e 2 9
e 2 10
e 2 11
e 2 12
e 2 13
e 2 14
e 2 21
e 2 22
e 2 23
e 2 24
e 2 26
e 2 27
e 2 28
e 2 29
e 2 33
e 2 35
e 2 37
e 2 38
e 2 40
e 2 49
e 3 4
e 3 5
e 3 6
e 3 7
e 3 9
e 3 11
e 3 13
e 3 14
e 3 16
e 3 17
e 3 25
e 3 26
e 3 29
e 3 32
e 3 33
e 3 35
e 3 37
e 3 38
e 3 43
e 3 48
e 4 5
e 4 6
e 4 8
e 4 14
e 4 15
e 4 17
e 4 18
e 4 20
e 4 22
e 4 24
e 4 25
e 4 31
e 4 41
e 4 44
e 4 46
e 4 49
e 4 50
e 5 6
e 5 9
e 5 10
e 5 11
e 5 12
e 5 15
e 5 17
e 5 23
e 5 25
e 5 26
e 5 30
e 5 33
e 5 41
e 5 48
e 6 10
e 6 11
e 6 12
e 6 13
e 6 14
e 6 22
e 6 25
e 6 37
e 6 40
e 6 43
e 6 46
e 7 9
e 7 11
e 7 18
e 7 19
e 7 23
e 7 27
e 7 31
e 7 34
e 7 35
e 7 36
e 7 37
e 7 40
e 8 9
e 8 11
e 8 14
e 8 16
e 8 22
e 8 25
e 8 27
e 8 32
e 8 34
e 8 36
e 8 40
e 8 42
e 8 45
e 9 11
e 9 15
e 9 16
e 9 17
e 9 24
e 9 29
e 9 36
e 9 43
e 9 49
e 10 12
e 10 13
e 10 16
e 10 19
e 10 30
e 10 32
e 10 35
e 10 39
e 10 50
e 11 12
e 11 18
e 11 41
e 11 42
e 12 17
e 12 19
e 12 21
e 12 32
e 12 39
e 12 47
e 13 19
e 13 20
e 13 28
e 13 30
e 13 38
e 13 46
e 14 18
e 14 20
e 14 24
e 14 47
e 15 19
e 15 20
e 15 23
e 15 31
e 15 39
e 15 44
e 16 27
e 16 41
e 16 42
e 16 44
e 16 49
e 17 19
e 17 21
e 17 46
e 18 21
e 18 24
e 18 28
e 18 49
e 19 27
e 19 34
e 20 21
e 20 39
e 20 47
e 21 38
e 21 39
e 21 43
e 22 29
e 22 36
e 22 50
e 23 33
e 23 41
e 23 50
e 24 28
e 24 31
e 25 31
e 25 42
e 26 28
e 26 30
e 26 34
e 27 47
e 27 48
e 29 48
e 30 44
e 31 45
e 32 42
e 33 45
e 34 36
e 35 47
e 36 45
n 4 1
n 11 3
n 19 3
n 22 1
n 23 1
n 25 1
n 28 2
n 30 1
n 32 2
n 33 1
n 35 1
n 36 1
n 37 1
n 38 2
n 39 3
n 40 1
n 44 1
n 46 1
n 49 1
n 50 1
